19
9
8 13 11 15 4 17 0 5 9
3 8
5 13 14 10 3 16 12 6 0 1 7 15
3 17 14 0 16 18 12 15 6 4
18 3 4 0 14 16 13 8 17 10 7 9 1 11 12 6 2
14 1 4 8 6 10
9 13 18 4 17 0 8 2 14 11 5 10 7 12 6 16 15 3 1
18 12 15 3 5 6 13 9 1 16
12 11 16 3 8 0 18 2
